%rwf=temp.rwf
%nosave
%chk=temp.chk
# mp2/6-21G

title

0 1
 H
 H                  1            B1

   B1             0.60000000
