%nprocshared=4
%chk=temp.chk
# ADD METHOD/6-31g(d,p) scrf=(solvent=water) scf=qc
geom=(modredundant,connectivity)

Title Card Required

1 1
 C              
 C                  1            B1
 C                  1            B2    2            A1
 C                  1            B3    3            A2    2            D1    0
 C                  4            B4    1            A3    3            D2    0
 C                  4            B5    1            A4    3            D3    0
 C                  6            B6    4            A5    1            D4    0
 C                  7            B7    6            A6    4            D5    0
 C                  5            B8    4            A7    1            D6    0
 N                  8            B9    7            A8    6            D7    0
 C                 10           B10    8            A9    7            D8    0
 C                 10           B11    8           A10    7            D9    0
 C                  3           B12    1           A11    2           D10    0
 C                  2           B13    1           A12    3           D11    0
 O                 14           B14    2           A13    1           D12    0
 C                  2           B15    1           A14    3           D13    0
 C                 16           B16    2           A15    1           D14    0
 C                 17           B17   16           A16    2           D15    0
 C                 14           B18    2           A17    1           D16    0
 C                  3           B19    1           A18    2           D17    0
 C                 20           B20    3           A19    1           D18    0
 C                 21           B21   20           A20    3           D19    0
 C                 13           B22    3           A21    1           D20    0
 N                 18           B23   17           A22   16           D21    0
 N                 22           B24   21           A23   20           D22    0
 C                 24           B25   18           A24   17           D23    0
 C                 24           B26   18           A25   17           D24    0
 C                 25           B27   22           A26   21           D25    0
 C                 25           B28   22           A27   21           D26    0
 H                  6           B29    4           A28    1           D27    0
 H                  5           B30    4           A29    1           D28    0
 H                  7           B31    6           A30    4           D29    0
 H                  9           B32    5           A31    4           D30    0
 H                 20           B33    3           A32    1           D31    0
 H                 21           B34   20           A33    3           D32    0
 H                 23           B35   13           A34    3           D33    0
 H                 16           B36    2           A35    1           D34    0
 H                 17           B37   16           A36    2           D35    0
 H                 19           B38   14           A37    2           D36    0
 H                 11           B39   10           A38    8           D37    0
 H                 11           B40   10           A39    8           D38    0
 H                 11           B41   10           A40    8           D39    0
 H                 12           B42   10           A41    8           D40    0
 H                 12           B43   10           A42    8           D41    0
 H                 12           B44   10           A43    8           D42    0
 H                 27           B45   24           A44   18           D43    0
 H                 27           B46   24           A45   18           D44    0
 H                 27           B47   24           A46   18           D45    0
 H                 26           B48   24           A47   18           D46    0
 H                 26           B49   24           A48   18           D47    0
 H                 26           B50   24           A49   18           D48    0
 H                 28           B51   25           A50   22           D49    0
 H                 28           B52   25           A51   22           D50    0
 H                 28           B53   25           A52   22           D51    0
 H                 29           B54   25           A53   22           D52    0
 H                 29           B55   25           A54   22           D53    0
 H                 29           B56   25           A55   22           D54    0

   B1             1.42258339
   B2             1.42257727
   B3             1.47243734
   B4             1.41051573
   B5             1.41044905
   B6             1.38724153
   B7             1.42218359
   B8             1.38723193
   B9             1.37006794
   B10            1.45920609
   B11            1.45921866
   B12            1.42487520
   B13            1.42485648
   B14            1.36278578
   B15            1.42703505
   B16            1.37106980
   B17            1.43671871
   B18            1.38248709
   B19            1.42700408
   B20            1.37107369
   B21            1.43672740
   B22            1.38249351
   B23            1.35672183
   B24            1.35673912
   B25            1.46300856
   B26            1.46469478
   B27            1.46301215
   B28            1.46469051
   B29            1.08580715
   B30            1.08578458
   B31            1.08249025
   B32            1.08252602
   B33            1.08275362
   B34            1.08172783
   B35            1.08130837
   B36            1.08274278
   B37            1.08172779
   B38            1.08130908
   B39            1.09683250
   B40            1.08917507
   B41            1.09787617
   B42            1.09821102
   B43            1.08919840
   B44            1.09653783
   B45            1.08838074
   B46            1.09502054
   B47            1.09593568
   B48            1.08829412
   B49            1.09633542
   B50            1.09569321
   B51            1.09570399
   B52            1.08828102
   B53            1.09633315
   B54            1.08839393
   B55            1.09497873
   B56            1.09597756
   A1           117.87455132
   A2           121.07887888
   A3           121.46764982
   A4           121.46612966
   A5           121.84963651
   A6           121.11105576
   A7           121.84749719
   A8           121.51430337
   A9           120.27495506
   A10          120.28680129
   A11          119.76766745
   A12          119.77111023
   A13          120.74259933
   A14          124.83452065
   A15          122.35651333
   A16          121.17733307
   A17          123.50015718
   A18          124.83770233
   A19          122.35423254
   A20          121.17913437
   A21          123.50062421
   A22          121.11855218
   A23          121.11441394
   A24          120.21260162
   A25          120.81832809
   A26          120.21755707
   A27          120.81484517
   A28          119.59443364
   A29          119.60113025
   A30          118.46986017
   A31          118.46296590
   A32          118.88532481
   A33          118.72572445
   A34          117.96958476
   A35          118.88281638
   A36          118.72633173
   A37          117.97198900
   A38          111.47660682
   A39          109.02503437
   A40          111.74230725
   A41          111.84802037
   A42          109.01975252
   A43          111.37664220
   A44          108.80039408
   A45          111.19717066
   A46          111.46846864
   A47          109.03994556
   A48          111.29314783
   A49          111.05731734
   A50          111.06099161
   A51          109.03650555
   A52          111.29520854
   A53          108.80232004
   A54          111.18614244
   A55          111.47932759
   D1          -179.98784143
   D2             PAR
   D3          -126.09752657
   D4           179.21813360
   D5             1.82975666
   D6           179.10067893
   D7           178.69890743
   D8           176.83713092
   D9             1.25172046
   D10            0.69786471
   D11            0.67572887
   D12           -1.41512998
   D13         -176.09465141
   D14          179.93786406
   D15           -0.45739076
   D16          179.67528495
   D17         -176.07023905
   D18          179.95724819
   D19           -0.45056637
   D20          179.65449804
   D21          178.85446350
   D22          178.81883708
   D23          178.60201610
   D24            0.13207841
   D25          178.49072794
   D26            0.09671424
   D27            1.84465289
   D28            1.59054386
   D29         -177.88192211
   D30         -178.17827583
   D31            0.85012494
   D32         -179.48808402
   D33         -179.90805349
   D34            0.82100169
   D35         -179.51276724
   D36         -179.92314949
   D37           60.91948055
   D38         -179.95238734
   D39          -60.43144585
   D40           62.49005239
   D41         -177.90366365
   D42          -58.85295247
   D43         -177.76106152
   D44          -58.72749753
   D45           62.91936955
   D46          178.62052072
   D47          -61.89255951
   D48           59.34270576
   D49           59.44446890
   D50          178.72373483
   D51          -61.79539526
   D52         -177.50253620
   D53          -58.48347085
   D54           63.16271264

 1 2 1.5 3 1.5 4 1.0
 2 14 1.5 16 1.5
 3 13 1.5 20 1.5
 4 5 1.5 6 1.5
 5 9 1.5 31 1.0
 6 7 1.5 30 1.0
 7 8 1.5 32 1.0
 8 9 1.5 10 1.5
 9 33 1.0
 10 11 1.0 12 1.0
 11 40 1.0 41 1.0 42 1.0
 12 43 1.0 44 1.0 45 1.0
 13 15 1.0 23 2.0
 14 15 1.0 19 2.0
 15
 16 17 2.0 37 1.0
 17 18 1.5 38 1.0
 18 19 1.5 24 1.5
 19 39 1.0
 20 21 2.0 34 1.0
 21 22 1.5 35 1.0
 22 23 1.5 25 1.5
 23 36 1.0
 24 26 1.0 27 1.0
 25 28 1.0 29 1.0
 26 49 1.0 50 1.0 51 1.0
 27 46 1.0 47 1.0 48 1.0
 28 52 1.0 53 1.0 54 1.0
 29 55 1.0 56 1.0 57 1.0
 30
 31
 32
 33
 34
 35
 36
 37
 38
 39
 40
 41
 42
 43
 44
 45
 46
 47
 48
 49
 50
 51
 52
 53
 54
 55
 56
 57

D 5 4 1 3 F













